c cksystemsgroup.github.io/unicorn
c CNF contains a total of 100 clauses.
c CNF contains a total of 51 variables.
c CNF clauses cover 1 bad states.
c Variable name mapping (18 names):
c   1: input[bit=0]
c   2: input[bit=0]
c   4: input[bit=0]
c   8: input[bit=1]
c   10: input[bit=1]
c   14: input[bit=2]
c   16: input[bit=2]
c   20: input[bit=3]
c   22: input[bit=3]
c   27: input[bit=4]
c   29: input[bit=4]
c   33: input[bit=5]
c   35: input[bit=5]
c   39: input[bit=6]
c   41: input[bit=6]
c   45: input[bit=7]
c   47: input[bit=7]
c   51: ?
p cnf 51 100
-1 -2 3 0
1 -3 0
2 -3 0
2 -4 5 0
-2 -5 0
4 -5 0
3 5 -6 0
-3 6 0
-5 6 0
-6 -7 0
6 7 0
-8 -2 9 0
8 -9 0
2 -9 0
2 -10 11 0
-2 -11 0
10 -11 0
9 11 -12 0
-9 12 0
-11 12 0
-7 -12 13 0
7 -13 0
12 -13 0
-14 -2 15 0
14 -15 0
2 -15 0
2 -16 17 0
-2 -17 0
16 -17 0
15 17 -18 0
-15 18 0
-17 18 0
-13 -18 19 0
13 -19 0
18 -19 0
-20 -2 21 0
20 -21 0
2 -21 0
2 -22 23 0
-2 -23 0
22 -23 0
21 23 -24 0
-21 24 0
-23 24 0
-24 -25 0
24 25 0
-19 -25 26 0
19 -26 0
25 -26 0
-27 -2 28 0
27 -28 0
2 -28 0
2 -29 30 0
-2 -30 0
29 -30 0
28 30 -31 0
-28 31 0
-30 31 0
-26 -31 32 0
26 -32 0
31 -32 0
-33 -2 34 0
33 -34 0
2 -34 0
2 -35 36 0
-2 -36 0
35 -36 0
34 36 -37 0
-34 37 0
-36 37 0
-32 -37 38 0
32 -38 0
37 -38 0
-39 -2 40 0
39 -40 0
2 -40 0
2 -41 42 0
-2 -42 0
41 -42 0
40 42 -43 0
-40 43 0
-42 43 0
-38 -43 44 0
38 -44 0
43 -44 0
-45 -2 46 0
45 -46 0
2 -46 0
2 -47 48 0
-2 -48 0
47 -48 0
46 48 -49 0
-46 49 0
-48 49 0
-49 -50 0
49 50 0
-44 -50 51 0
44 -51 0
50 -51 0
51 0
